p cnf 200 1110
-101 -2 0
-101 -31 0
-101 -29 0
-101 -86 0
-101 7 0
-101 -41 0
-101 92 0
-101 -25 0
-101 -90 0
-101 -12 0
101 2 31 29 86 -7 41 -92 25 90 12 0
-102 44 0
-102 23 0
-102 -7 0
-102 -60 0
-102 -54 0
-102 89 0
-102 65 0
-102 -33 0
-102 -38 0
-102 -8 0
102 -44 -23 7 60 54 -89 -65 33 38 8 0
-103 -51 0
-103 83 0
-103 56 0
-103 -50 0
-103 98 0
-103 30 0
-103 -22 0
-103 59 0
-103 80 0
-103 -34 0
103 51 -83 -56 50 -98 -30 22 -59 -80 34 0
-104 44 0
-104 53 0
-104 6 0
-104 68 0
-104 -82 0
-104 -73 0
-104 -27 0
-104 -39 0
-104 57 0
-104 47 0
104 -44 -53 -6 -68 82 73 27 39 -57 -47 0
-105 58 0
-105 19 0
-105 -90 0
-105 -24 0
-105 31 0
-105 -70 0
-105 -52 0
-105 -87 0
-105 -94 0
-105 -17 0
105 -58 -19 90 24 -31 70 52 87 94 17 0
-106 14 0
-106 -15 0
-106 62 0
-106 90 0
-106 -6 0
-106 99 0
-106 -39 0
-106 -41 0
-106 58 0
-106 -93 0
106 -14 15 -62 -90 6 -99 39 41 -58 93 0
-107 56 0
-107 -38 0
-107 -98 0
-107 86 0
-107 -1 0
-107 84 0
-107 -32 0
-107 -60 0
-107 -21 0
-107 100 0
107 -56 38 98 -86 1 -84 32 60 21 -100 0
-108 70 0
-108 2 0
-108 16 0
-108 26 0
-108 7 0
-108 -3 0
-108 -74 0
-108 78 0
-108 -95 0
-108 50 0
108 -70 -2 -16 -26 -7 3 74 -78 95 -50 0
-109 -6 0
-109 36 0
-109 29 0
-109 27 0
-109 -63 0
-109 97 0
-109 99 0
-109 -92 0
-109 -14 0
-109 47 0
109 6 -36 -29 -27 63 -97 -99 92 14 -47 0
-110 78 0
-110 -9 0
-110 45 0
-110 92 0
-110 -77 0
-110 19 0
-110 57 0
-110 35 0
-110 -18 0
-110 76 0
110 -78 9 -45 -92 77 -19 -57 -35 18 -76 0
101 102 103 104 105 106 107 108 109 110 0
-111 -77 0
-111 -81 0
-111 -50 0
-111 99 0
-111 -14 0
-111 63 0
-111 6 0
-111 -55 0
-111 20 0
-111 -27 0
111 77 81 50 -99 14 -63 -6 55 -20 27 0
-112 -18 0
-112 -30 0
-112 56 0
-112 -67 0
-112 -91 0
-112 -6 0
-112 73 0
-112 76 0
-112 29 0
-112 -43 0
112 18 30 -56 67 91 6 -73 -76 -29 43 0
-113 -54 0
-113 24 0
-113 -53 0
-113 76 0
-113 -72 0
-113 34 0
-113 38 0
-113 -19 0
-113 26 0
-113 20 0
113 54 -24 53 -76 72 -34 -38 19 -26 -20 0
-114 -63 0
-114 -69 0
-114 6 0
-114 -47 0
-114 10 0
-114 44 0
-114 -70 0
-114 51 0
-114 -54 0
-114 -95 0
114 63 69 -6 47 -10 -44 70 -51 54 95 0
-115 -64 0
-115 76 0
-115 -66 0
-115 -88 0
-115 -16 0
-115 -1 0
-115 27 0
-115 9 0
-115 -81 0
-115 -96 0
115 64 -76 66 88 16 1 -27 -9 81 96 0
-116 -65 0
-116 -6 0
-116 40 0
-116 -76 0
-116 2 0
-116 -4 0
-116 51 0
-116 -17 0
-116 41 0
-116 -36 0
116 65 6 -40 76 -2 4 -51 17 -41 36 0
-117 46 0
-117 90 0
-117 44 0
-117 40 0
-117 61 0
-117 -54 0
-117 -42 0
-117 77 0
-117 96 0
-117 -78 0
117 -46 -90 -44 -40 -61 54 42 -77 -96 78 0
-118 -78 0
-118 -15 0
-118 73 0
-118 28 0
-118 29 0
-118 -56 0
-118 30 0
-118 -91 0
-118 -27 0
-118 -36 0
118 78 15 -73 -28 -29 56 -30 91 27 36 0
-119 -11 0
-119 44 0
-119 -90 0
-119 -18 0
-119 27 0
-119 86 0
-119 20 0
-119 -60 0
-119 92 0
-119 38 0
119 11 -44 90 18 -27 -86 -20 60 -92 -38 0
-120 -5 0
-120 15 0
-120 -13 0
-120 -99 0
-120 86 0
-120 -64 0
-120 -35 0
-120 75 0
-120 63 0
-120 -67 0
120 5 -15 13 99 -86 64 35 -75 -63 67 0
111 112 113 114 115 116 117 118 119 120 0
-121 -68 0
-121 60 0
-121 98 0
-121 19 0
-121 -3 0
-121 99 0
-121 4 0
-121 -29 0
-121 -53 0
-121 17 0
121 68 -60 -98 -19 3 -99 -4 29 53 -17 0
-122 3 0
-122 -64 0
-122 53 0
-122 89 0
-122 -16 0
-122 -80 0
-122 62 0
-122 54 0
-122 49 0
-122 -59 0
122 -3 64 -53 -89 16 80 -62 -54 -49 59 0
-123 18 0
-123 29 0
-123 78 0
-123 44 0
-123 93 0
-123 96 0
-123 -5 0
-123 -16 0
-123 -98 0
-123 -58 0
123 -18 -29 -78 -44 -93 -96 5 16 98 58 0
-124 -56 0
-124 8 0
-124 -3 0
-124 12 0
-124 99 0
-124 -51 0
-124 -39 0
-124 -49 0
-124 7 0
-124 -10 0
124 56 -8 3 -12 -99 51 39 49 -7 10 0
-125 -62 0
-125 79 0
-125 95 0
-125 -59 0
-125 -16 0
-125 39 0
-125 -22 0
-125 96 0
-125 -92 0
-125 -28 0
125 62 -79 -95 59 16 -39 22 -96 92 28 0
-126 -78 0
-126 90 0
-126 47 0
-126 -60 0
-126 -74 0
-126 86 0
-126 -38 0
-126 32 0
-126 -61 0
-126 89 0
126 78 -90 -47 60 74 -86 38 -32 61 -89 0
-127 51 0
-127 71 0
-127 76 0
-127 5 0
-127 72 0
-127 -52 0
-127 -48 0
-127 -93 0
-127 -1 0
-127 91 0
127 -51 -71 -76 -5 -72 52 48 93 1 -91 0
-128 41 0
-128 57 0
-128 18 0
-128 -84 0
-128 27 0
-128 -66 0
-128 -6 0
-128 12 0
-128 28 0
-128 26 0
128 -41 -57 -18 84 -27 66 6 -12 -28 -26 0
-129 -88 0
-129 40 0
-129 -63 0
-129 18 0
-129 34 0
-129 -41 0
-129 27 0
-129 17 0
-129 61 0
-129 82 0
129 88 -40 63 -18 -34 41 -27 -17 -61 -82 0
-130 17 0
-130 35 0
-130 57 0
-130 16 0
-130 -9 0
-130 31 0
-130 -87 0
-130 58 0
-130 -97 0
-130 -4 0
130 -17 -35 -57 -16 9 -31 87 -58 97 4 0
121 122 123 124 125 126 127 128 129 130 0
-131 -98 0
-131 100 0
-131 -38 0
-131 25 0
-131 -82 0
-131 68 0
-131 -35 0
-131 84 0
-131 70 0
-131 -63 0
131 98 -100 38 -25 82 -68 35 -84 -70 63 0
-132 -52 0
-132 80 0
-132 70 0
-132 15 0
-132 95 0
-132 66 0
-132 76 0
-132 69 0
-132 -74 0
-132 -32 0
132 52 -80 -70 -15 -95 -66 -76 -69 74 32 0
-133 55 0
-133 -21 0
-133 88 0
-133 77 0
-133 95 0
-133 71 0
-133 -60 0
-133 -56 0
-133 -62 0
-133 -67 0
133 -55 21 -88 -77 -95 -71 60 56 62 67 0
-134 -28 0
-134 -13 0
-134 10 0
-134 9 0
-134 -58 0
-134 -6 0
-134 -56 0
-134 -69 0
-134 98 0
-134 -30 0
134 28 13 -10 -9 58 6 56 69 -98 30 0
-135 -54 0
-135 24 0
-135 -70 0
-135 -17 0
-135 -69 0
-135 13 0
-135 -40 0
-135 2 0
-135 -4 0
-135 52 0
135 54 -24 70 17 69 -13 40 -2 4 -52 0
-136 63 0
-136 -51 0
-136 -26 0
-136 61 0
-136 9 0
-136 -32 0
-136 87 0
-136 -98 0
-136 6 0
-136 15 0
136 -63 51 26 -61 -9 32 -87 98 -6 -15 0
-137 79 0
-137 16 0
-137 -18 0
-137 17 0
-137 -48 0
-137 -62 0
-137 31 0
-137 -11 0
-137 -64 0
-137 -38 0
137 -79 -16 18 -17 48 62 -31 11 64 38 0
-138 13 0
-138 -70 0
-138 -89 0
-138 -12 0
-138 -75 0
-138 59 0
-138 63 0
-138 -78 0
-138 -64 0
-138 -38 0
138 -13 70 89 12 75 -59 -63 78 64 38 0
-139 -93 0
-139 -30 0
-139 -87 0
-139 39 0
-139 -79 0
-139 81 0
-139 -46 0
-139 12 0
-139 -97 0
-139 52 0
139 93 30 87 -39 79 -81 46 -12 97 -52 0
-140 79 0
-140 -71 0
-140 -94 0
-140 -89 0
-140 -65 0
-140 86 0
-140 97 0
-140 -74 0
-140 64 0
-140 -46 0
140 -79 71 94 89 65 -86 -97 74 -64 46 0
131 132 133 134 135 136 137 138 139 140 0
-141 48 0
-141 -30 0
-141 83 0
-141 -22 0
-141 25 0
-141 -87 0
-141 57 0
-141 64 0
-141 93 0
-141 -74 0
141 -48 30 -83 22 -25 87 -57 -64 -93 74 0
-142 -37 0
-142 -80 0
-142 -25 0
-142 -32 0
-142 81 0
-142 -75 0
-142 85 0
-142 60 0
-142 91 0
-142 22 0
142 37 80 25 32 -81 75 -85 -60 -91 -22 0
-143 11 0
-143 -85 0
-143 -70 0
-143 30 0
-143 28 0
-143 -22 0
-143 8 0
-143 44 0
-143 86 0
-143 -13 0
143 -11 85 70 -30 -28 22 -8 -44 -86 13 0
-144 20 0
-144 -93 0
-144 -34 0
-144 -32 0
-144 -17 0
-144 15 0
-144 -88 0
-144 52 0
-144 69 0
-144 58 0
144 -20 93 34 32 17 -15 88 -52 -69 -58 0
-145 50 0
-145 34 0
-145 47 0
-145 -43 0
-145 -24 0
-145 64 0
-145 28 0
-145 16 0
-145 -70 0
-145 65 0
145 -50 -34 -47 43 24 -64 -28 -16 70 -65 0
-146 81 0
-146 13 0
-146 -55 0
-146 -65 0
-146 -31 0
-146 -100 0
-146 83 0
-146 -28 0
-146 -17 0
-146 90 0
146 -81 -13 55 65 31 100 -83 28 17 -90 0
-147 -14 0
-147 16 0
-147 -54 0
-147 -23 0
-147 -87 0
-147 -50 0
-147 64 0
-147 49 0
-147 89 0
-147 69 0
147 14 -16 54 23 87 50 -64 -49 -89 -69 0
-148 25 0
-148 4 0
-148 -97 0
-148 -89 0
-148 60 0
-148 23 0
-148 49 0
-148 -95 0
-148 84 0
-148 46 0
148 -25 -4 97 89 -60 -23 -49 95 -84 -46 0
-149 9 0
-149 16 0
-149 -76 0
-149 -70 0
-149 2 0
-149 49 0
-149 -41 0
-149 -75 0
-149 29 0
-149 21 0
149 -9 -16 76 70 -2 -49 41 75 -29 -21 0
-150 43 0
-150 44 0
-150 60 0
-150 -47 0
-150 -51 0
-150 61 0
-150 77 0
-150 -99 0
-150 38 0
-150 12 0
150 -43 -44 -60 47 51 -61 -77 99 -38 -12 0
141 142 143 144 145 146 147 148 149 150 0
-151 -25 0
-151 -57 0
-151 95 0
-151 40 0
-151 8 0
-151 35 0
-151 45 0
-151 -99 0
-151 -89 0
-151 16 0
151 25 57 -95 -40 -8 -35 -45 99 89 -16 0
-152 24 0
-152 -15 0
-152 10 0
-152 52 0
-152 -39 0
-152 57 0
-152 -21 0
-152 14 0
-152 -81 0
-152 -17 0
152 -24 15 -10 -52 39 -57 21 -14 81 17 0
-153 12 0
-153 88 0
-153 21 0
-153 3 0
-153 56 0
-153 -28 0
-153 97 0
-153 93 0
-153 30 0
-153 32 0
153 -12 -88 -21 -3 -56 28 -97 -93 -30 -32 0
-154 91 0
-154 18 0
-154 8 0
-154 66 0
-154 -82 0
-154 -1 0
-154 -36 0
-154 75 0
-154 -46 0
-154 -10 0
154 -91 -18 -8 -66 82 1 36 -75 46 10 0
-155 91 0
-155 76 0
-155 83 0
-155 -15 0
-155 39 0
-155 -56 0
-155 -33 0
-155 -4 0
-155 97 0
-155 75 0
155 -91 -76 -83 15 -39 56 33 4 -97 -75 0
-156 -34 0
-156 23 0
-156 -60 0
-156 -53 0
-156 -58 0
-156 -24 0
-156 87 0
-156 -91 0
-156 -86 0
-156 26 0
156 34 -23 60 53 58 24 -87 91 86 -26 0
-157 10 0
-157 69 0
-157 77 0
-157 83 0
-157 -65 0
-157 45 0
-157 74 0
-157 43 0
-157 -63 0
-157 -94 0
157 -10 -69 -77 -83 65 -45 -74 -43 63 94 0
-158 -39 0
-158 81 0
-158 60 0
-158 22 0
-158 10 0
-158 25 0
-158 -30 0
-158 -6 0
-158 -47 0
-158 36 0
158 39 -81 -60 -22 -10 -25 30 6 47 -36 0
-159 -31 0
-159 -14 0
-159 -8 0
-159 -10 0
-159 -57 0
-159 38 0
-159 -47 0
-159 62 0
-159 29 0
-159 45 0
159 31 14 8 10 57 -38 47 -62 -29 -45 0
-160 43 0
-160 -92 0
-160 -12 0
-160 -21 0
-160 -63 0
-160 -18 0
-160 -84 0
-160 68 0
-160 1 0
-160 -99 0
160 -43 92 12 21 63 18 84 -68 -1 99 0
151 152 153 154 155 156 157 158 159 160 0
-161 87 0
-161 -43 0
-161 15 0
-161 41 0
-161 34 0
-161 97 0
-161 -54 0
-161 73 0
-161 53 0
-161 84 0
161 -87 43 -15 -41 -34 -97 54 -73 -53 -84 0
-162 -36 0
-162 -42 0
-162 92 0
-162 69 0
-162 -79 0
-162 4 0
-162 -49 0
-162 -51 0
-162 11 0
-162 65 0
162 36 42 -92 -69 79 -4 49 51 -11 -65 0
-163 -86 0
-163 -90 0
-163 8 0
-163 89 0
-163 51 0
-163 -31 0
-163 72 0
-163 6 0
-163 63 0
-163 85 0
163 86 90 -8 -89 -51 31 -72 -6 -63 -85 0
-164 74 0
-164 -93 0
-164 24 0
-164 -41 0
-164 7 0
-164 -43 0
-164 17 0
-164 46 0
-164 -36 0
-164 -89 0
164 -74 93 -24 41 -7 43 -17 -46 36 89 0
-165 -31 0
-165 -58 0
-165 9 0
-165 -76 0
-165 -93 0
-165 -42 0
-165 -71 0
-165 69 0
-165 65 0
-165 -94 0
165 31 58 -9 76 93 42 71 -69 -65 94 0
-166 74 0
-166 -77 0
-166 -46 0
-166 -22 0
-166 -100 0
-166 14 0
-166 -16 0
-166 57 0
-166 -8 0
-166 -87 0
166 -74 77 46 22 100 -14 16 -57 8 87 0
-167 81 0
-167 -82 0
-167 -96 0
-167 -95 0
-167 35 0
-167 -45 0
-167 62 0
-167 -23 0
-167 -90 0
-167 -46 0
167 -81 82 96 95 -35 45 -62 23 90 46 0
-168 94 0
-168 -58 0
-168 42 0
-168 10 0
-168 65 0
-168 -84 0
-168 -47 0
-168 83 0
-168 -7 0
-168 -80 0
168 -94 58 -42 -10 -65 84 47 -83 7 80 0
-169 -84 0
-169 -56 0
-169 18 0
-169 -35 0
-169 100 0
-169 -38 0
-169 -52 0
-169 27 0
-169 99 0
-169 3 0
169 84 56 -18 35 -100 38 52 -27 -99 -3 0
-170 -53 0
-170 34 0
-170 44 0
-170 -51 0
-170 -9 0
-170 -66 0
-170 92 0
-170 -1 0
-170 98 0
-170 -43 0
170 53 -34 -44 51 9 66 -92 1 -98 43 0
161 162 163 164 165 166 167 168 169 170 0
-171 -29 0
-171 -17 0
-171 56 0
-171 88 0
-171 91 0
-171 -83 0
-171 62 0
-171 -37 0
-171 -16 0
-171 87 0
171 29 17 -56 -88 -91 83 -62 37 16 -87 0
-172 -6 0
-172 -64 0
-172 73 0
-172 53 0
-172 94 0
-172 -81 0
-172 43 0
-172 59 0
-172 -66 0
-172 35 0
172 6 64 -73 -53 -94 81 -43 -59 66 -35 0
-173 49 0
-173 -29 0
-173 -37 0
-173 -38 0
-173 -56 0
-173 71 0
-173 -26 0
-173 22 0
-173 57 0
-173 24 0
173 -49 29 37 38 56 -71 26 -22 -57 -24 0
-174 -20 0
-174 14 0
-174 -98 0
-174 -34 0
-174 89 0
-174 50 0
-174 13 0
-174 -59 0
-174 -67 0
-174 43 0
174 20 -14 98 34 -89 -50 -13 59 67 -43 0
-175 34 0
-175 9 0
-175 53 0
-175 -15 0
-175 -73 0
-175 26 0
-175 -10 0
-175 74 0
-175 -97 0
-175 -65 0
175 -34 -9 -53 15 73 -26 10 -74 97 65 0
-176 28 0
-176 49 0
-176 10 0
-176 -54 0
-176 19 0
-176 30 0
-176 44 0
-176 -65 0
-176 -59 0
-176 25 0
176 -28 -49 -10 54 -19 -30 -44 65 59 -25 0
-177 -48 0
-177 87 0
-177 73 0
-177 -53 0
-177 9 0
-177 47 0
-177 1 0
-177 -92 0
-177 -65 0
-177 -58 0
177 48 -87 -73 53 -9 -47 -1 92 65 58 0
-178 -41 0
-178 -10 0
-178 99 0
-178 -19 0
-178 -12 0
-178 -87 0
-178 -35 0
-178 -3 0
-178 -91 0
-178 -59 0
178 41 10 -99 19 12 87 35 3 91 59 0
-179 58 0
-179 -49 0
-179 47 0
-179 -84 0
-179 77 0
-179 78 0
-179 65 0
-179 100 0
-179 -73 0
-179 50 0
179 -58 49 -47 84 -77 -78 -65 -100 73 -50 0
-180 -96 0
-180 14 0
-180 46 0
-180 -97 0
-180 -49 0
-180 85 0
-180 7 0
-180 75 0
-180 34 0
-180 40 0
180 96 -14 -46 97 49 -85 -7 -75 -34 -40 0
171 172 173 174 175 176 177 178 179 180 0
-181 74 0
-181 -70 0
-181 -29 0
-181 -46 0
-181 -64 0
-181 -27 0
-181 -63 0
-181 -45 0
-181 83 0
-181 -52 0
181 -74 70 29 46 64 27 63 45 -83 52 0
-182 87 0
-182 -27 0
-182 -51 0
-182 -44 0
-182 -12 0
-182 -5 0
-182 100 0
-182 -89 0
-182 -9 0
-182 28 0
182 -87 27 51 44 12 5 -100 89 9 -28 0
-183 81 0
-183 -85 0
-183 8 0
-183 -10 0
-183 89 0
-183 -18 0
-183 68 0
-183 39 0
-183 -37 0
-183 27 0
183 -81 85 -8 10 -89 18 -68 -39 37 -27 0
-184 -26 0
-184 45 0
-184 -67 0
-184 -48 0
-184 -23 0
-184 11 0
-184 -84 0
-184 -9 0
-184 -72 0
-184 -29 0
184 26 -45 67 48 23 -11 84 9 72 29 0
-185 -35 0
-185 79 0
-185 76 0
-185 30 0
-185 75 0
-185 -69 0
-185 2 0
-185 49 0
-185 -60 0
-185 56 0
185 35 -79 -76 -30 -75 69 -2 -49 60 -56 0
-186 -47 0
-186 -40 0
-186 2 0
-186 -15 0
-186 31 0
-186 27 0
-186 36 0
-186 39 0
-186 21 0
-186 33 0
186 47 40 -2 15 -31 -27 -36 -39 -21 -33 0
-187 14 0
-187 84 0
-187 78 0
-187 -53 0
-187 38 0
-187 -61 0
-187 86 0
-187 33 0
-187 -34 0
-187 -35 0
187 -14 -84 -78 53 -38 61 -86 -33 34 35 0
-188 -74 0
-188 79 0
-188 -24 0
-188 -54 0
-188 -30 0
-188 38 0
-188 -65 0
-188 -98 0
-188 -71 0
-188 89 0
188 74 -79 24 54 30 -38 65 98 71 -89 0
-189 -62 0
-189 59 0
-189 14 0
-189 -68 0
-189 57 0
-189 56 0
-189 91 0
-189 -41 0
-189 -61 0
-189 -60 0
189 62 -59 -14 68 -57 -56 -91 41 61 60 0
-190 34 0
-190 36 0
-190 -100 0
-190 64 0
-190 93 0
-190 14 0
-190 76 0
-190 -37 0
-190 80 0
-190 17 0
190 -34 -36 100 -64 -93 -14 -76 37 -80 -17 0
181 182 183 184 185 186 187 188 189 190 0
-191 25 0
-191 76 0
-191 -72 0
-191 92 0
-191 41 0
-191 50 0
-191 -6 0
-191 -78 0
-191 29 0
-191 -60 0
191 -25 -76 72 -92 -41 -50 6 78 -29 60 0
-192 -36 0
-192 91 0
-192 20 0
-192 44 0
-192 50 0
-192 42 0
-192 -21 0
-192 -52 0
-192 -53 0
-192 3 0
192 36 -91 -20 -44 -50 -42 21 52 53 -3 0
-193 81 0
-193 -71 0
-193 -53 0
-193 21 0
-193 2 0
-193 -57 0
-193 82 0
-193 89 0
-193 -78 0
-193 98 0
193 -81 71 53 -21 -2 57 -82 -89 78 -98 0
-194 -63 0
-194 -25 0
-194 -81 0
-194 11 0
-194 42 0
-194 66 0
-194 50 0
-194 -82 0
-194 -57 0
-194 76 0
194 63 25 81 -11 -42 -66 -50 82 57 -76 0
-195 -6 0
-195 86 0
-195 87 0
-195 -73 0
-195 46 0
-195 -49 0
-195 58 0
-195 22 0
-195 77 0
-195 -40 0
195 6 -86 -87 73 -46 49 -58 -22 -77 40 0
-196 19 0
-196 -80 0
-196 95 0
-196 -70 0
-196 -73 0
-196 -23 0
-196 -78 0
-196 97 0
-196 69 0
-196 -50 0
196 -19 80 -95 70 73 23 78 -97 -69 50 0
-197 -69 0
-197 -86 0
-197 77 0
-197 -45 0
-197 -16 0
-197 100 0
-197 68 0
-197 -33 0
-197 52 0
-197 74 0
197 69 86 -77 45 16 -100 -68 33 -52 -74 0
-198 -63 0
-198 -91 0
-198 -89 0
-198 -72 0
-198 26 0
-198 73 0
-198 98 0
-198 93 0
-198 -95 0
-198 -38 0
198 63 91 89 72 -26 -73 -98 -93 95 38 0
-199 66 0
-199 47 0
-199 77 0
-199 86 0
-199 58 0
-199 -37 0
-199 -57 0
-199 7 0
-199 69 0
-199 -27 0
199 -66 -47 -77 -86 -58 37 57 -7 -69 27 0
-200 -100 0
-200 96 0
-200 -50 0
-200 2 0
-200 51 0
-200 30 0
-200 -8 0
-200 9 0
-200 58 0
-200 -97 0
200 100 -96 50 -2 -51 -30 8 -9 -58 97 0
191 192 193 194 195 196 197 198 199 200 0
